c colouring generated by benchmark framework
p edge 87 406
v 1 2
v 2 2
v 3 1
v 4 6
v 5 1
v 6 1
v 7 7
v 8 1
v 9 2
v 10 1
v 11 4
v 12 2
v 13 2
v 14 1
v 15 1
v 16 6
v 17 8
v 18 4
v 19 1
v 20 8
v 21 3
v 22 2
v 23 4
v 24 2
v 25 1
v 26 1
v 27 4
v 28 1
v 29 7
v 30 2
v 31 2
v 32 9
v 33 6
v 34 5
v 35 6
v 36 1
v 37 2
v 38 1
v 39 1
v 40 5
v 41 1
v 42 5
v 43 6
v 44 1
v 45 5
v 46 7
v 47 2
v 48 1
v 49 2
v 50 6
v 51 2
v 52 4
v 53 8
v 54 4
v 55 8
v 56 1
v 57 1
v 58 4
v 59 1
v 60 3
v 61 3
v 62 1
v 63 3
v 64 1
v 65 1
v 66 4
v 67 1
v 68 3
v 69 5
v 70 1
v 71 3
v 72 5
v 73 7
v 74 10
v 75 1
v 76 3
v 77 1
v 78 2
v 79 5
v 80 5
v 81 7
v 82 1
v 83 0
v 84 9
v 85 0
v 86 1
v 87 3
